NAME: n500q20I.tsp, 500 nodes, semilla 888
COMMENT: Problema aleatorio de norma euclidea
DIMENSION: 500
CAPACITY: 20
EDGE_WEIGHT_TYPE: EUC_2D
NODE_COORD_SECTION
1   0.0000   0.0000
2 317.0000 439.0000
3 424.0000 411.0000
4 -174.0000 426.0000
5  38.0000 211.0000
6 117.0000 -53.0000
7 179.0000  85.0000
8 -145.0000 -67.0000
9 -314.0000 342.0000
10 385.0000 487.0000
11 -128.0000 -456.0000
12 -95.0000 133.0000
13 449.0000 -253.0000
14 389.0000 271.0000
15 -379.0000 468.0000
16  13.0000 -151.0000
17 223.0000 -422.0000
18 356.0000 -437.0000
19 309.0000  78.0000
20 103.0000 -391.0000
21 -20.0000 -109.0000
22  98.0000 485.0000
23 405.0000 -153.0000
24  15.0000 443.0000
25 288.0000 472.0000
26 -248.0000 -146.0000
27 184.0000  58.0000
28 479.0000 217.0000
29 312.0000 -160.0000
30  -4.0000 -431.0000
31 -348.0000 -214.0000
32 -121.0000 -311.0000
33 131.0000 342.0000
34 -258.0000 -362.0000
35  43.0000 265.0000
36 -119.0000 500.0000
37 -371.0000 343.0000
38 388.0000 296.0000
39  10.0000 442.0000
40 -307.0000 352.0000
41 -297.0000 -16.0000
42 398.0000 -313.0000
43  85.0000 -304.0000
44 -187.0000 494.0000
45 413.0000  22.0000
46 139.0000 -57.0000
47 -14.0000  45.0000
48 250.0000  91.0000
49 382.0000  84.0000
50 -437.0000 288.0000
51 -198.0000 436.0000
52 -234.0000 371.0000
53 -160.0000 -295.0000
54 162.0000 -228.0000
55 -269.0000  71.0000
56 144.0000 -286.0000
57 442.0000 462.0000
58  11.0000 -356.0000
59 -472.0000 281.0000
60 307.0000 458.0000
61 344.0000 -252.0000
62 -485.0000 -261.0000
63 287.0000 -43.0000
64 -137.0000 184.0000
65 -158.0000 -443.0000
66 410.0000 201.0000
67 -382.0000 -458.0000
68 -49.0000 -58.0000
69 477.0000 446.0000
70 -434.0000 441.0000
71 231.0000 117.0000
72 -183.0000  34.0000
73 329.0000 -404.0000
74 -217.0000 -253.0000
75 -72.0000 -338.0000
76 481.0000 -410.0000
77   9.0000 -421.0000
78  20.0000 131.0000
79 -84.0000 419.0000
80  38.0000 -154.0000
81 -242.0000 152.0000
82  76.0000 201.0000
83 -244.0000 -441.0000
84  51.0000 -314.0000
85  20.0000 -479.0000
86 -450.0000 -105.0000
87  30.0000 -172.0000
88 -24.0000 265.0000
89 -268.0000  15.0000
90 178.0000 -450.0000
91 -138.0000 -57.0000
92 -489.0000 -182.0000
93 -72.0000 -213.0000
94 -179.0000 129.0000
95 -72.0000 190.0000
96 -481.0000 175.0000
97 387.0000 206.0000
98 -375.0000 -128.0000
99 -129.0000 -279.0000
100 268.0000 -247.0000
101 190.0000 -16.0000
102 -269.0000 -210.0000
103 185.0000 174.0000
104   5.0000 -122.0000
105 -437.0000 458.0000
106 -372.0000 -261.0000
107 -400.0000  18.0000
108 388.0000 -481.0000
109  94.0000 -253.0000
110 -176.0000 -428.0000
111 -229.0000 -249.0000
112 -134.0000 410.0000
113  63.0000 159.0000
114 393.0000 470.0000
115 -149.0000 -415.0000
116 -312.0000 -488.0000
117 322.0000 -469.0000
118 -235.0000 -82.0000
119 -161.0000 145.0000
120 407.0000 -280.0000
121 -185.0000 -165.0000
122 -468.0000  68.0000
123 344.0000 -190.0000
124 -471.0000  51.0000
125 115.0000 244.0000
126 -101.0000 -333.0000
127 -410.0000 -162.0000
128 -474.0000 -154.0000
129 -332.0000 -374.0000
130 380.0000  11.0000
131 -23.0000 202.0000
132 -16.0000 -452.0000
133 -471.0000 267.0000
134  44.0000 -400.0000
135 368.0000 -475.0000
136 344.0000 161.0000
137 256.0000 -302.0000
138 331.0000 120.0000
139 222.0000 261.0000
140 398.0000  -9.0000
141 -395.0000 -299.0000
142 423.0000 152.0000
143  -8.0000 282.0000
144  68.0000 157.0000
145 -374.0000 328.0000
146 162.0000 -120.0000
147 -312.0000 105.0000
148 484.0000 -341.0000
149 465.0000 472.0000
150 -305.0000  58.0000
151  77.0000 355.0000
152 -210.0000 -216.0000
153 -268.0000 240.0000
154 -335.0000  79.0000
155 -480.0000 -428.0000
156 -349.0000 -404.0000
157 -202.0000 -49.0000
158 -188.0000 -102.0000
159 441.0000 100.0000
160 412.0000 -234.0000
161 -328.0000 -72.0000
162 -254.0000  59.0000
163 -112.0000 -303.0000
164 100.0000 327.0000
165 100.0000 -471.0000
166 352.0000 277.0000
167 -339.0000 466.0000
168 -390.0000  85.0000
169 -363.0000 -171.0000
170 446.0000 193.0000
171 224.0000 -34.0000
172  -8.0000 337.0000
173 397.0000 234.0000
174 146.0000 -159.0000
175 401.0000 403.0000
176 -402.0000  81.0000
177 -378.0000 499.0000
178 413.0000 -403.0000
179 178.0000 -440.0000
180 400.0000 -218.0000
181 -286.0000 -233.0000
182 -387.0000 146.0000
183 280.0000 180.0000
184 -213.0000 311.0000
185 -94.0000 -64.0000
186 321.0000  78.0000
187 -218.0000 228.0000
188 -451.0000 437.0000
189 491.0000 -339.0000
190 313.0000 -251.0000
191 -39.0000 -208.0000
192 -446.0000 422.0000
193 300.0000 448.0000
194 411.0000 375.0000
195 -219.0000 -394.0000
196 -465.0000 -294.0000
197 129.0000 -151.0000
198 -417.0000 -153.0000
199  22.0000 -90.0000
200 427.0000 160.0000
201 -444.0000 209.0000
202 -324.0000 -354.0000
203 496.0000 -139.0000
204 265.0000  34.0000
205 175.0000 -480.0000
206 -368.0000 -242.0000
207 208.0000 -109.0000
208 -440.0000  93.0000
209 -389.0000 -104.0000
210  28.0000 -361.0000
211 385.0000 236.0000
212 -222.0000 458.0000
213 251.0000 -80.0000
214 -131.0000 398.0000
215 136.0000 258.0000
216 -15.0000 -457.0000
217 377.0000 -294.0000
218 -371.0000 -55.0000
219 -96.0000 -70.0000
220 -491.0000  15.0000
221 -375.0000 -28.0000
222 232.0000 -468.0000
223  87.0000 115.0000
224 247.0000 -386.0000
225 -463.0000  67.0000
226 -16.0000 -297.0000
227 -393.0000 410.0000
228 -479.0000 -82.0000
229 -472.0000 -309.0000
230 -183.0000 181.0000
231 -435.0000 -80.0000
232 268.0000 -412.0000
233 244.0000 120.0000
234 -195.0000 319.0000
235 469.0000 290.0000
236 465.0000 180.0000
237 -207.0000 121.0000
238 -327.0000 -129.0000
239   5.0000 136.0000
240 -96.0000 -47.0000
241  73.0000 128.0000
242 -194.0000 -58.0000
243 -243.0000 343.0000
244  44.0000 -122.0000
245 414.0000 -413.0000
246 -263.0000 -122.0000
247 -50.0000 312.0000
248 277.0000 336.0000
249 -198.0000 -210.0000
250 -436.0000 -56.0000
251 -184.0000 -250.0000
252 -27.0000 313.0000
253 -56.0000 406.0000
254 -445.0000 407.0000
255 298.0000 -349.0000
256 403.0000 -474.0000
257  56.0000 351.0000
258 -81.0000  99.0000
259 -226.0000 -492.0000
260 211.0000 114.0000
261 -249.0000 136.0000
262 -18.0000 304.0000
263 -446.0000 409.0000
264 292.0000 -119.0000
265 -219.0000 -310.0000
266 -231.0000 365.0000
267 264.0000 446.0000
268 -312.0000 -50.0000
269 421.0000 212.0000
270 445.0000  69.0000
271 230.0000 148.0000
272 -264.0000 269.0000
273 -432.0000 418.0000
274 -141.0000 -480.0000
275 -409.0000 168.0000
276 -227.0000 -150.0000
277 -382.0000  41.0000
278 337.0000 -197.0000
279 -127.0000 -325.0000
280 248.0000 -72.0000
281 220.0000 -28.0000
282 486.0000 188.0000
283  61.0000 -463.0000
284 460.0000 -461.0000
285 112.0000 -438.0000
286 -119.0000 -81.0000
287  -6.0000 370.0000
288 -218.0000 263.0000
289  72.0000 182.0000
290  58.0000  76.0000
291 -462.0000 380.0000
292 -396.0000 -242.0000
293 176.0000 -122.0000
294 159.0000 -377.0000
295 331.0000 -329.0000
296 203.0000 -299.0000
297 -65.0000 -339.0000
298 353.0000 -378.0000
299 -153.0000 207.0000
300 183.0000 -24.0000
301 -318.0000 121.0000
302 205.0000  87.0000
303 477.0000 318.0000
304 -225.0000 338.0000
305  41.0000 374.0000
306 220.0000 -225.0000
307 102.0000 -312.0000
308 -74.0000  30.0000
309 -336.0000 169.0000
310 -61.0000   4.0000
311 -23.0000 373.0000
312 331.0000 -359.0000
313  55.0000 -43.0000
314 -93.0000 -60.0000
315 263.0000 130.0000
316 410.0000 -91.0000
317 -358.0000 193.0000
318 194.0000 -237.0000
319 -41.0000 320.0000
320  65.0000   7.0000
321 258.0000 127.0000
322  88.0000 457.0000
323   4.0000 -341.0000
324 -148.0000   2.0000
325 -438.0000 -465.0000
326 275.0000 -374.0000
327 -142.0000 -380.0000
328 161.0000 -366.0000
329  19.0000 -69.0000
330 492.0000 -220.0000
331 -196.0000 -232.0000
332 277.0000 202.0000
333  48.0000 489.0000
334 128.0000 277.0000
335 185.0000 422.0000
336 357.0000 -233.0000
337 -181.0000 220.0000
338 304.0000  26.0000
339 -414.0000 421.0000
340  77.0000  -6.0000
341 -266.0000  11.0000
342 -335.0000 -303.0000
343 182.0000 -259.0000
344 -427.0000 250.0000
345 347.0000 -168.0000
346 420.0000  80.0000
347 -33.0000 377.0000
348 343.0000 -369.0000
349 -35.0000 -102.0000
350 -441.0000 483.0000
351  58.0000 467.0000
352 243.0000 328.0000
353 364.0000 -165.0000
354 -150.0000 218.0000
355 426.0000 -409.0000
356 -45.0000 311.0000
357 -483.0000  35.0000
358 411.0000 257.0000
359 -218.0000 319.0000
360 -361.0000  39.0000
361 -200.0000  11.0000
362 -494.0000 -89.0000
363 -130.0000 238.0000
364 -14.0000 -43.0000
365  72.0000 -357.0000
366 -226.0000 375.0000
367 178.0000  85.0000
368 434.0000  84.0000
369 -154.0000 -203.0000
370 -393.0000 138.0000
371 492.0000 -423.0000
372 188.0000 -65.0000
373 -370.0000 455.0000
374  18.0000 -54.0000
375 257.0000 267.0000
376 -58.0000 307.0000
377 -247.0000 -235.0000
378 -464.0000 -128.0000
379  99.0000 350.0000
380 -300.0000 -310.0000
381  57.0000 428.0000
382 494.0000   8.0000
383  74.0000 397.0000
384 -236.0000 178.0000
385 -240.0000 337.0000
386 -201.0000 -48.0000
387 446.0000 -190.0000
388 -167.0000  67.0000
389 -198.0000  -8.0000
390 261.0000 236.0000
391 -169.0000 448.0000
392 260.0000 269.0000
393 358.0000 261.0000
394 -204.0000 -67.0000
395 -370.0000 -190.0000
396 -362.0000 488.0000
397 225.0000 -473.0000
398  15.0000 -499.0000
399 201.0000 314.0000
400 -121.0000 433.0000
401 -317.0000 327.0000
402 -455.0000 429.0000
403 -118.0000 -21.0000
404  66.0000 -108.0000
405 303.0000 -226.0000
406 -114.0000 -32.0000
407 425.0000  55.0000
408 -281.0000 -411.0000
409  79.0000 -156.0000
410  79.0000 -339.0000
411 -331.0000 202.0000
412 -232.0000 -243.0000
413 119.0000 154.0000
414  65.0000 112.0000
415 407.0000 -459.0000
416 -380.0000 -109.0000
417 -35.0000 -183.0000
418 -226.0000 401.0000
419 -448.0000 -436.0000
420 -49.0000 272.0000
421 256.0000 104.0000
422 139.0000 -260.0000
423 117.0000 -232.0000
424  32.0000 450.0000
425 -75.0000 -38.0000
426 -319.0000 -312.0000
427  50.0000 365.0000
428 482.0000 355.0000
429 363.0000 165.0000
430 412.0000 392.0000
431 -459.0000 269.0000
432 -357.0000 -193.0000
433 272.0000 188.0000
434 383.0000 301.0000
435 -330.0000 300.0000
436 -328.0000  57.0000
437 -214.0000 -377.0000
438   5.0000 -174.0000
439 -314.0000 -406.0000
440 335.0000 182.0000
441 215.0000   6.0000
442  97.0000 478.0000
443 -163.0000 -68.0000
444 219.0000 352.0000
445 -107.0000  57.0000
446 256.0000 261.0000
447  73.0000 251.0000
448 -276.0000 -347.0000
449 348.0000 -461.0000
450 234.0000 391.0000
451 382.0000 -285.0000
452  -4.0000 -458.0000
453 -129.0000 450.0000
454 -260.0000  24.0000
455 -399.0000 493.0000
456 347.0000 -368.0000
457 350.0000 241.0000
458 329.0000  95.0000
459 484.0000  94.0000
460 -388.0000  38.0000
461 422.0000 -266.0000
462 -396.0000 167.0000
463 174.0000 -274.0000
464 294.0000 349.0000
465 -289.0000 -164.0000
466  -1.0000 -463.0000
467 456.0000 -406.0000
468 -420.0000 239.0000
469  29.0000 274.0000
470  32.0000 -496.0000
471 496.0000 -13.0000
472 374.0000 -440.0000
473 -31.0000 338.0000
474 -353.0000 203.0000
475 145.0000 228.0000
476 109.0000 380.0000
477 277.0000 -493.0000
478 433.0000 462.0000
479 -63.0000 -41.0000
480 371.0000  31.0000
481 195.0000 -313.0000
482 -216.0000 -334.0000
483 426.0000 -487.0000
484 200.0000 -125.0000
485 -209.0000 494.0000
486 377.0000 496.0000
487 162.0000 385.0000
488 -90.0000 246.0000
489 -136.0000 -158.0000
490 292.0000  -6.0000
491 -101.0000 341.0000
492 278.0000 -134.0000
493  27.0000 328.0000
494 -81.0000 -205.0000
495 -76.0000 -458.0000
496  89.0000 -181.0000
497 -56.0000 -123.0000
498 427.0000 -463.0000
499 -82.0000 303.0000
500 -16.0000 -372.0000
DISPLAY_DATA_SECTION:
 1  250  250
 2  408  469
 3  462  455
 4  163  463
 5  269  355
 6  308  223
 7  339  292
 8  177  216
 9   93  421
10  442  493
11  186   22
12  202  316
13  474  123
14  444  385
15   60  484
16  256  174
17  361   39
18  428   31
19  404  289
20  301   54
21  240  195
22  299  492
23  452  173
24  257  471
25  394  486
26  126  177
27  342  279
28  489  358
29  406  170
30  248   34
31   76  143
32  189   94
33  315  421
34  121   69
35  271  382
36  190  500
37   64  421
38  444  398
39  255  471
40   96  426
41  101  242
42  449   93
43  292   98
44  156  497
45  456  261
46  319  221
47  243  272
48  375  295
49  441  292
50   31  394
51  151  468
52  133  435
53  170  102
54  331  136
55  115  285
56  322  107
57  471  481
58  255   72
59   14  390
60  403  479
61  422  124
62    7  119
63  393  228
64  181  342
65  171   28
66  455  350
67   59   21
68  225  221
69  488  473
70   33  470
71  365  308
72  158  267
73  414   48
74  141  123
75  214   81
76  490   45
77  254   39
78  260  315
79  208  459
80  269  173
81  129  326
82  288  350
83  128   29
84  275   93
85  260   10
86   25  197
87  265  164
88  238  382
89  116  257
90  339   25
91  181  221
92    5  159
93  214  143
94  160  314
95  214  345
96    9  337
97  443  353
98   62  186
99  185  110
100  384  126
101  345  242
102  115  145
103  342  337
104  252  189
105   31  479
106   64  119
107   50  259
108  444    9
109  297  123
110  162   36
111  135  125
112  183  455
113  281  329
114  446  485
115  175   42
116   94    6
117  411   15
118  132  209
119  169  322
120  453  110
121  157  167
122   16  284
123  422  155
124   14  275
125  307  372
126  199   83
127   45  169
128   13  173
129   84   63
130  440  255
131  238  351
132  242   24
133   14  383
134  272   50
135  434   12
136  422  330
137  378   99
138  415  310
139  361  380
140  449  245
141   52  100
142  461  326
143  246  391
144  284  328
145   63  414
146  331  190
147   94  302
148  492   79
149  482  486
150   97  279
151  288  427
152  145  142
153  116  370
154   82  289
155   10   36
156   75   48
157  149  225
158  156  199
159  470  300
160  456  133
161   86  214
162  123  279
163  194   98
164  300  413
165  300   14
166  426  388
167   80  483
168   55  292
169   68  164
170  473  346
171  362  233
172  246  418
173  448  367
174  323  170
175  450  451
176   49  290
177   61  499
178  456   48
179  339   30
180  450  141
181  107  133
182   56  323
183  390  340
184  143  405
185  203  218
186  410  289
187  141  364
188   24  468
189  495   80
190  406  124
191  230  146
192   27  461
193  400  474
194  455  437
195  140   53
196   17  103
197  314  174
198   41  173
199  261  205
200  463  330
201   28  354
202   88   73
203  498  180
204  382  267
205  337   10
206   66  129
207  354  195
208   30  296
209   55  198
210  264   69
211  442  368
212  139  479
213  375  210
214  184  449
215  318  379
216  242   21
217  438  103
218   64  222
219  202  215
220    4  257
221   62  236
222  366   16
223  293  307
224  373   57
225   18  283
226  242  101
227   53  455
228   10  209
229   14   95
230  158  340
231   32  210
232  384   44
233  372  310
234  152  409
235  484  395
236  482  340
237  146  310
238   86  185
239  252  318
240  202  226
241  286  314
242  153  221
243  128  421
244  272  189
245  457   43
246  118  189
247  225  406
248  388  418
249  151  145
250   32  222
251  158  125
252  236  406
253  222  453
254   27  453
255  399   75
256  451   13
257  278  425
258  209  299
259  137    4
260  355  307
261  125  318
262  241  402
263   27  454
264  396  190
265  140   95
266  134  432
267  382  473
268   94  225
269  460  356
270  472  284
271  365  324
272  118  384
273   34  459
274  179   10
275   45  334
276  136  175
277   59  270
278  418  151
279  186   87
280  374  214
281  360  236
282  493  344
283  280   18
284  480   19
285  306   31
286  190  209
287  247  435
288  141  381
289  286  341
290  279  288
291   19  440
292   52  129
293  338  189
294  329   61
295  415   85
296  351  100
297  217   80
298  426   61
299  173  353
300  341  238
301   91  310
302  352  293
303  488  409
304  137  419
305  270  437
306  360  137
307  301   94
308  213  265
309   82  334
310  219  252
311  238  436
312  415   70
313  277  228
314  203  220
315  381  315
316  455  204
317   71  346
318  347  131
319  229  410
320  282  253
321  379  313
322  294  478
323  252   79
324  176  251
325   31   17
326  387   63
327  179   60
328  330   67
329  259  215
330  496  140
331  152  134
332  388  351
333  274  494
334  314  388
335  342  461
336  428  133
337  159  360
338  402  263
339   43  460
340  288  247
341  117  255
342   82   98
343  341  120
344   36  375
345  423  166
346  460  290
347  233  438
348  421   65
349  232  199
350   29  491
351  279  483
352  371  414
353  432  167
354  175  359
355  463   45
356  227  405
357    8  267
358  455  378
359  141  409
360   69  269
361  150  255
362    3  205
363  185  369
364  243  228
365  286   71
366  137  437
367  339  292
368  467  292
369  173  148
370   53  319
371  496   38
372  344  217
373   65  477
374  259  223
375  378  383
376  221  403
377  126  132
378   18  186
379  299  425
380  100   95
381  278  464
382  497  254
383  287  448
384  132  339
385  130  418
386  149  226
387  473  155
388  166  283
389  151  246
390  380  368
391  165  474
392  380  384
393  429  380
394  148  216
395   65  155
396   69  494
397  362   13
398  257    0
399  350  407
400  189  466
401   91  413
402   22  464
403  191  239
404  283  196
405  401  137
406  193  234
407  462  277
408  109   44
409  289  172
410  289   80
411   84  351
412  134  128
413  309  327
414  282  306
415  453   20
416   60  195
417  232  158
418  137  450
419   26   32
420  225  386
421  378  302
422  319  120
423  308  134
424  266  475
425  212  231
426   90   94
427  275  432
428  491  427
429  431  332
430  456  446
431   20  384
432   71  153
433  386  344
434  441  400
435   85  400
436   86  278
437  143   61
438  252  163
439   93   47
440  417  341
441  357  253
442  298  489
443  168  216
444  359  426
445  196  278
446  378  380
447  286  375
448  112   76
449  424   19
450  367  445
451  441  107
452  248   21
453  185  475
454  120  262
455   50  496
456  423   66
457  425  370
458  414  297
459  492  297
460   56  269
461  461  117
462   52  333
463  337  113
464  397  424
465  105  168
466  249   18
467  478   47
468   40  369
469  264  387
470  266    2
471  498  243
472  437   30
473  234  419
474   73  351
475  322  364
476  304  440
477  388    3
478  466  481
479  218  229
480  435  265
481  347   93
482  142   83
483  463    6
484  350  187
485  145  497
486  438  498
487  331  442
488  205  373
489  182  171
490  396  247
491  199  420
492  389  183
493  263  414
494  209  147
495  212   21
496  294  159
497  222  188
498  463   18
499  209  401
500  242   64
DEMAND_SECTION
1 9
2 -5
3 1
4 -6
5 -7
6 2
7 9
8 -7
9 7
10 2
11 6
12 -7
13 -10
14 -2
15 8
16 1
17 9
18 0
19 0
20 9
21 2
22 -6
23 -1
24 0
25 8
26 6
27 7
28 1
29 -5
30 3
31 -2
32 -5
33 8
34 4
35 -3
36 -4
37 9
38 -2
39 0
40 -7
41 6
42 -6
43 -10
44 5
45 -4
46 0
47 6
48 8
49 7
50 0
51 2
52 -8
53 4
54 0
55 7
56 -1
57 -9
58 6
59 1
60 -5
61 8
62 0
63 6
64 -6
65 -10
66 7
67 -1
68 2
69 9
70 -7
71 0
72 -9
73 5
74 0
75 1
76 -7
77 -9
78 5
79 9
80 4
81 7
82 10
83 -7
84 4
85 2
86 6
87 -7
88 9
89 -9
90 5
91 0
92 1
93 1
94 -7
95 -8
96 0
97 -2
98 -8
99 -10
100 -9
101 0
102 -5
103 -5
104 -9
105 7
106 -9
107 0
108 -7
109 -9
110 5
111 2
112 1
113 7
114 0
115 -6
116 -3
117 -10
118 -2
119 2
120 -2
121 2
122 2
123 7
124 -1
125 6
126 5
127 -4
128 0
129 4
130 -9
131 0
132 10
133 5
134 1
135 -4
136 -2
137 2
138 5
139 -9
140 -4
141 -7
142 -8
143 2
144 -8
145 -9
146 -2
147 3
148 4
149 -9
150 2
151 8
152 -9
153 -3
154 6
155 6
156 -6
157 7
158 9
159 -5
160 -6
161 -8
162 7
163 -2
164 -4
165 0
166 -8
167 -2
168 3
169 -1
170 2
171 6
172 -4
173 -8
174 -7
175 -9
176 -2
177 -6
178 2
179 1
180 0
181 -2
182 -8
183 -5
184 -10
185 -5
186 -4
187 -8
188 -8
189 1
190 2
191 -4
192 -2
193 3
194 4
195 0
196 -4
197 8
198 -7
199 0
200 -10
201 2
202 2
203 -2
204 -4
205 9
206 -5
207 -4
208 -10
209 -9
210 -8
211 9
212 -9
213 9
214 7
215 -4
216 0
217 2
218 -8
219 -2
220 -6
221 3
222 1
223 -9
224 -7
225 -5
226 2
227 5
228 0
229 8
230 1
231 -2
232 8
233 -8
234 -9
235 -8
236 4
237 -9
238 -4
239 6
240 6
241 0
242 0
243 2
244 -2
245 -4
246 6
247 0
248 -1
249 -6
250 8
251 -5
252 6
253 9
254 8
255 5
256 -5
257 6
258 0
259 5
260 8
261 -9
262 -2
263 -9
264 4
265 -9
266 5
267 5
268 -5
269 -6
270 3
271 10
272 -3
273 -9
274 -10
275 4
276 -9
277 0
278 2
279 5
280 8
281 9
282 1
283 6
284 5
285 1
286 4
287 -5
288 6
289 9
290 10
291 7
292 6
293 -4
294 6
295 0
296 8
297 2
298 0
299 -3
300 6
301 -10
302 -1
303 -4
304 7
305 -4
306 6
307 1
308 -8
309 6
310 7
311 10
312 5
313 -10
314 2
315 4
316 8
317 0
318 2
319 4
320 4
321 0
322 -6
323 7
324 -2
325 7
326 8
327 7
328 0
329 -4
330 6
331 -5
332 -6
333 5
334 0
335 7
336 4
337 9
338 -7
339 -10
340 2
341 -7
342 0
343 1
344 4
345 2
346 -9
347 5
348 -7
349 -9
350 -2
351 -4
352 -10
353 0
354 8
355 -4
356 8
357 -1
358 8
359 -7
360 6
361 7
362 3
363 9
364 1
365 3
366 -1
367 7
368 0
369 8
370 10
371 5
372 -5
373 8
374 -6
375 1
376 1
377 6
378 8
379 5
380 -6
381 1
382 -5
383 -10
384 3
385 10
386 1
387 -5
388 6
389 5
390 7
391 0
392 6
393 4
394 8
395 7
396 -1
397 7
398 3
399 -7
400 -1
401 7
402 -9
403 6
404 4
405 0
406 -6
407 -7
408 -4
409 3
410 -6
411 -8
412 0
413 7
414 -2
415 -9
416 -10
417 0
418 -4
419 -9
420 -9
421 3
422 5
423 -3
424 -10
425 -1
426 -5
427 -3
428 0
429 -5
430 0
431 -3
432 -3
433 -7
434 -7
435 7
436 9
437 1
438 7
439 2
440 5
441 -2
442 -1
443 6
444 0
445 -2
446 0
447 10
448 -1
449 -7
450 -2
451 -2
452 3
453 7
454 -6
455 -6
456 1
457 -6
458 -6
459 9
460 0
461 8
462 0
463 0
464 -10
465 0
466 -2
467 5
468 -4
469 -1
470 -6
471 -1
472 -2
473 8
474 6
475 7
476 4
477 8
478 3
479 -7
480 3
481 -1
482 -1
483 -10
484 4
485 -5
486 -2
487 2
488 5
489 -5
490 6
491 0
492 -3
493 9
494 4
495 -1
496 -9
497 4
498 0
499 -4
500 5
EOF